Route #1: 1 7 3 29 49 16 14 28 53 35 1 
Route #2: 1 17 50 25 51 19 26 10 13 1 
Route #3: 1 52 41 40 11 39 12 54 36 1 
Route #4: 1 2 23 2 43 2 44 42 2 1 
Route #5: 1 18 10 33 45 4 17 34 3 1 
Route #6: 1 5 46 30 6 37 38 6 48 22 49 31 1 
Route #7: 1 47 14 9 55 20 15 54 8 27 1 
Cost 674.0
